set VV := 0 1 2 3 4 5 6 7 8 9 10 11 12 13 14 15 16 17 18 19 20 21 22 23 24 25 26 27 28 29 30 31 32 33 34 35 36 37 38 39 40 41 42 ;
set VS := 0 1 2 3 4 5 6 7 8 9 10 11 12 13 14 15 16 17 18 19 20 21 22 23 24 25 26 27 28 29 30 31 32 33 34 35 36 37 38 39 40 41 42 43 44 45 46 47 48 49 50 51 52 53 54 55 56 57 58 59 60 61 62 63 64 65 66 67 68 69 70 71 72 73 74 75 76 77 78 79 80 81 82 83 84 85 86 87 88 89 ;
param cv := 
0 19
1 18
2 16
3 10
4 25
5 12
6 11
7 11
8 16
9 11
10 12
11 18
12 20
13 17
14 12
15 12
16 16
17 25
18 23
19 18
20 25
21 21
22 10
23 21
24 18
25 19
26 10
27 15
28 17
29 11
30 23
31 24
32 20
33 14
34 13
35 17
36 22
37 20
38 15
39 25
40 19
41 13
42 11
;
param cs := 
0 40
1 36
2 23
3 37
4 38
5 21
6 34
7 37
8 20
9 23
10 25
11 30
12 30
13 27
14 33
15 29
16 38
17 30
18 23
19 31
20 32
21 40
22 39
23 20
24 29
25 34
26 36
27 24
28 32
29 21
30 35
31 37
32 35
33 32
34 37
35 35
36 22
37 34
38 38
39 20
40 35
41 39
42 22
43 24
44 30
45 35
46 34
47 32
48 21
49 28
50 26
51 36
52 34
53 25
54 25
55 33
56 25
57 37
58 26
59 27
60 34
61 40
62 36
63 36
64 31
65 35
66 31
67 28
68 30
69 23
70 40
71 20
72 23
73 29
74 39
75 29
76 37
77 29
78 38
79 36
80 26
81 29
82 40
83 32
84 31
85 30
86 31
87 40
88 34
89 29
;
param bv:	 0 1 2 3 4 5 6 7 8 9 10 11 12 13 14 15 16 17 18 19 20 21 22 23 24 25 26 27 28 29 30 31 32 33 34 35 36 37 38 39 40 41 42 := 
		0 0 0 0 0 0 0 10 0 0 0 0 0 0 0 0 0 0 0 0 0 0 0 0 0 17 0 0 0 11 0 0 0 0 0 0 0 0 0 0 0 0 0 24 
		1 0 0 0 0 0 0 0 0 0 0 0 0 0 0 0 0 0 0 0 0 0 0 0 0 0 0 0 0 0 0 0 20 0 0 0 0 0 0 0 0 0 18 0 
		2 0 0 0 0 0 0 0 0 0 0 0 0 18 0 0 12 14 0 0 0 0 0 0 14 0 0 0 0 0 0 0 0 0 21 0 0 0 0 0 0 0 0 0 
		3 0 0 0 0 0 0 0 0 0 0 0 24 0 0 0 0 0 24 0 0 0 0 0 0 0 0 0 0 0 0 0 0 0 0 0 0 0 14 0 0 0 22 0 
		4 0 0 0 0 0 0 0 20 0 0 0 0 0 0 0 12 0 0 0 14 0 0 0 0 0 0 0 0 19 0 0 0 0 0 0 0 0 0 0 0 0 0 0 
		5 0 0 0 0 0 0 15 0 0 0 14 0 0 0 0 0 0 0 0 0 11 0 0 0 12 0 0 0 0 0 0 0 0 11 21 0 13 0 0 19 0 0 0 
		6 0 0 0 0 0 0 0 0 0 0 0 0 12 0 0 0 0 0 0 0 0 0 25 0 0 0 0 0 23 0 0 0 0 0 0 0 0 0 0 0 0 17 0 
		7 0 0 0 0 0 0 0 0 0 19 12 0 0 0 0 0 10 0 0 0 0 0 0 0 0 0 0 0 0 0 0 23 15 20 0 0 0 0 0 0 0 0 0 
		8 0 0 0 0 0 0 0 0 0 0 0 24 0 16 0 0 0 0 0 21 0 0 0 0 0 0 0 21 0 0 0 0 25 0 0 0 0 0 0 25 16 19 0 
		9 0 0 0 0 0 0 0 0 0 0 0 0 0 0 23 0 0 0 0 0 0 0 0 0 0 0 0 0 0 0 0 0 0 0 18 0 0 0 18 0 0 0 0 
		10 0 0 0 0 0 0 0 0 0 0 0 0 0 0 0 0 0 0 0 0 0 0 0 0 0 0 0 0 0 14 0 0 0 0 0 0 0 0 0 0 0 0 0 
		11 0 0 0 0 0 0 0 0 0 0 0 0 0 0 0 10 0 0 22 0 0 0 0 0 0 0 0 0 0 0 11 0 0 0 0 0 0 0 0 13 0 16 0 
		12 0 0 0 0 0 0 0 0 0 0 0 0 0 0 0 0 0 0 0 0 0 0 0 14 0 0 0 0 0 0 0 0 0 0 0 0 0 0 0 0 0 0 0 
		13 0 0 0 0 0 0 0 0 0 0 0 0 0 0 0 0 0 0 0 0 0 0 0 0 0 0 0 18 0 0 0 0 0 18 12 18 0 0 0 0 21 0 0 
		14 0 0 0 0 0 0 0 0 0 0 0 0 0 0 0 0 0 17 0 15 0 0 0 0 0 0 0 0 0 0 0 0 0 11 0 0 0 0 0 0 0 0 0 
		15 0 0 0 0 0 0 0 0 0 0 0 0 0 0 0 0 0 0 12 23 0 0 0 0 0 11 17 24 0 0 24 0 0 0 0 17 0 0 0 0 0 0 15 
		16 0 0 0 0 0 0 0 0 0 0 0 0 0 0 0 0 0 0 12 0 0 0 0 23 0 0 11 0 0 0 0 18 0 16 0 0 0 0 0 0 0 0 0 
		17 0 0 0 0 0 0 0 0 0 0 0 0 0 0 0 0 0 0 0 0 0 0 0 0 0 0 0 0 0 18 0 0 0 0 0 0 0 0 0 0 0 25 11 
		18 0 0 0 0 0 0 0 0 0 0 0 0 0 0 0 0 0 0 0 10 0 0 0 0 0 0 0 0 0 23 0 0 0 0 0 0 0 0 0 0 0 0 0 
		19 0 0 0 0 0 0 0 0 0 0 0 0 0 0 0 0 0 0 0 0 0 0 0 0 0 0 0 12 0 17 0 0 0 14 0 0 0 0 0 0 20 0 0 
		20 0 0 0 0 0 0 0 0 0 0 0 0 0 0 0 0 0 0 0 0 0 0 0 0 0 0 0 0 0 0 16 0 0 0 0 0 0 0 0 13 0 0 0 
		21 0 0 0 0 0 0 0 0 0 0 0 0 0 0 0 0 0 0 0 0 0 0 0 0 0 16 0 0 18 0 0 0 0 0 0 11 0 0 0 0 21 17 0 
		22 0 0 0 0 0 0 0 0 0 0 0 0 0 0 0 0 0 0 0 0 0 0 0 0 0 0 0 0 0 0 0 0 0 0 0 0 0 0 0 0 0 0 15 
		23 0 0 0 0 0 0 0 0 0 0 0 0 0 0 0 0 0 0 0 0 0 0 0 0 0 0 0 0 0 0 0 0 0 0 0 0 0 0 0 0 0 18 0 
		24 0 0 0 0 0 0 0 0 0 0 0 0 0 0 0 0 0 0 0 0 0 0 0 0 0 0 0 0 0 0 0 0 0 0 12 0 0 0 0 0 0 0 0 
		25 0 0 0 0 0 0 0 0 0 0 0 0 0 0 0 0 0 0 0 0 0 0 0 0 0 0 0 0 0 0 18 0 0 15 15 0 18 0 0 0 0 0 0 
		26 0 0 0 0 0 0 0 0 0 0 0 0 0 0 0 0 0 0 0 0 0 0 0 0 0 0 0 0 0 0 0 0 0 0 0 12 21 0 0 0 0 0 12 
		27 0 0 0 0 0 0 0 0 0 0 0 0 0 0 0 0 0 0 0 0 0 0 0 0 0 0 0 0 0 0 0 0 11 0 0 0 0 0 0 0 0 0 0 
		28 0 0 0 0 0 0 0 0 0 0 0 0 0 0 0 0 0 0 0 0 0 0 0 0 0 0 0 0 0 0 0 0 0 0 0 0 0 0 0 0 0 0 0 
		29 0 0 0 0 0 0 0 0 0 0 0 0 0 0 0 0 0 0 0 0 0 0 0 0 0 0 0 0 0 0 10 0 0 0 0 0 0 0 0 0 0 0 0 
		30 0 0 0 0 0 0 0 0 0 0 0 0 0 0 0 0 0 0 0 0 0 0 0 0 0 0 0 0 0 0 0 0 0 0 0 0 0 0 21 0 0 0 0 
		31 0 0 0 0 0 0 0 0 0 0 0 0 0 0 0 0 0 0 0 0 0 0 0 0 0 0 0 0 0 0 0 0 22 0 0 0 0 0 0 0 16 0 0 
		32 0 0 0 0 0 0 0 0 0 0 0 0 0 0 0 0 0 0 0 0 0 0 0 0 0 0 0 0 0 0 0 0 0 0 0 0 0 0 0 0 21 0 0 
		33 0 0 0 0 0 0 0 0 0 0 0 0 0 0 0 0 0 0 0 0 0 0 0 0 0 0 0 0 0 0 0 0 0 0 13 0 0 0 0 0 0 0 0 
		34 0 0 0 0 0 0 0 0 0 0 0 0 0 0 0 0 0 0 0 0 0 0 0 0 0 0 0 0 0 0 0 0 0 0 0 0 0 0 0 0 21 0 0 
		35 0 0 0 0 0 0 0 0 0 0 0 0 0 0 0 0 0 0 0 0 0 0 0 0 0 0 0 0 0 0 0 0 0 0 0 0 0 14 0 0 24 19 0 
		36 0 0 0 0 0 0 0 0 0 0 0 0 0 0 0 0 0 0 0 0 0 0 0 0 0 0 0 0 0 0 0 0 0 0 0 0 0 0 0 0 0 0 0 
		37 0 0 0 0 0 0 0 0 0 0 0 0 0 0 0 0 0 0 0 0 0 0 0 0 0 0 0 0 0 0 0 0 0 0 0 0 0 0 0 0 0 17 0 
		38 0 0 0 0 0 0 0 0 0 0 0 0 0 0 0 0 0 0 0 0 0 0 0 0 0 0 0 0 0 0 0 0 0 0 0 0 0 0 0 0 0 0 19 
		39 0 0 0 0 0 0 0 0 0 0 0 0 0 0 0 0 0 0 0 0 0 0 0 0 0 0 0 0 0 0 0 0 0 0 0 0 0 0 0 0 15 0 0 
		40 0 0 0 0 0 0 0 0 0 0 0 0 0 0 0 0 0 0 0 0 0 0 0 0 0 0 0 0 0 0 0 0 0 0 0 0 0 0 0 0 0 0 0 
		41 0 0 0 0 0 0 0 0 0 0 0 0 0 0 0 0 0 0 0 0 0 0 0 0 0 0 0 0 0 0 0 0 0 0 0 0 0 0 0 0 0 0 0 
		42 0 0 0 0 0 0 0 0 0 0 0 0 0 0 0 0 0 0 0 0 0 0 0 0 0 0 0 0 0 0 0 0 0 0 0 0 0 0 0 0 0 0 0 
;
param bs:	 0 1 2 3 4 5 6 7 8 9 10 11 12 13 14 15 16 17 18 19 20 21 22 23 24 25 26 27 28 29 30 31 32 33 34 35 36 37 38 39 40 41 42 43 44 45 46 47 48 49 50 51 52 53 54 55 56 57 58 59 60 61 62 63 64 65 66 67 68 69 70 71 72 73 74 75 76 77 78 79 80 81 82 83 84 85 86 87 88 89 := 
		0 0 0 32 0 0 0 0 38 0 0 0 0 0 0 0 0 0 0 21 0 0 0 0 0 0 0 26 0 0 0 0 0 0 0 0 0 0 0 0 0 0 0 0 0 0 0 0 0 0 0 0 0 0 0 0 0 0 0 0 0 0 0 0 0 0 0 0 0 0 0 25 0 0 0 0 0 0 33 0 0 0 0 0 0 0 0 0 0 0 0 
		1 0 0 0 0 0 0 0 0 39 0 29 0 0 0 0 0 0 24 0 22 0 0 0 0 0 0 0 0 0 23 0 0 0 0 0 0 0 29 0 0 0 0 0 0 0 29 0 31 0 0 0 0 0 0 0 0 0 0 0 0 0 0 0 0 0 0 0 38 0 0 0 0 0 0 0 0 0 0 0 0 0 0 0 0 35 20 0 0 23 0 
		2 32 0 0 30 0 0 0 0 0 0 0 0 0 0 0 0 0 0 0 0 0 0 0 0 0 0 0 0 0 0 0 34 0 0 28 0 0 0 0 0 0 0 0 0 0 0 0 0 0 0 0 0 0 0 0 0 0 0 0 20 0 0 0 40 0 0 0 0 0 0 0 0 0 0 0 0 27 0 0 34 0 0 0 0 0 0 0 0 0 0 
		3 0 0 30 0 0 0 0 0 0 0 0 0 0 0 0 0 0 0 0 0 0 0 0 32 0 0 0 0 0 0 0 0 0 0 0 0 0 0 0 36 0 0 0 37 0 22 0 0 0 0 36 0 0 0 0 0 0 0 0 0 0 0 0 0 0 0 0 0 29 33 0 28 0 0 0 0 0 0 0 35 0 0 0 29 0 0 0 24 0 0 
		4 0 0 0 0 0 0 0 0 0 0 0 24 0 0 0 0 0 0 0 0 0 0 0 0 0 0 0 24 0 0 0 0 0 0 0 0 0 0 0 0 0 0 0 0 0 0 0 0 0 0 0 0 21 0 0 0 0 0 0 0 0 0 0 0 0 32 0 0 0 24 33 0 0 0 0 0 0 0 0 0 0 0 0 0 0 39 27 0 0 0 
		5 0 0 0 0 0 0 0 30 20 0 0 0 0 0 29 0 0 0 0 0 0 0 0 0 38 0 0 0 0 39 0 0 0 0 29 0 0 0 23 0 0 0 0 0 0 28 0 0 0 30 0 0 0 0 0 0 0 0 0 0 0 0 21 0 0 0 0 0 0 0 0 24 0 0 36 0 0 0 37 0 0 0 0 28 24 0 0 0 0 0 
		6 0 0 0 0 0 0 0 0 0 0 0 0 0 0 0 40 0 0 0 0 0 0 0 0 0 0 0 28 0 0 0 0 0 30 0 0 0 0 0 0 0 0 0 0 0 0 0 0 0 0 0 0 0 0 29 0 0 0 0 0 0 0 0 0 22 0 38 24 0 35 0 0 0 0 0 0 0 0 20 0 0 0 0 0 0 0 0 20 0 0 
		7 38 0 0 0 0 30 0 0 0 0 0 0 32 0 0 0 0 0 0 30 0 0 0 0 0 0 0 0 0 0 26 0 38 0 0 0 0 0 0 0 0 0 0 0 0 0 0 0 0 0 0 0 0 0 28 0 0 37 0 0 0 0 0 0 0 0 0 40 0 0 0 0 24 0 0 0 0 23 0 0 0 0 0 0 0 0 0 0 0 0 
		8 0 39 0 0 0 20 0 0 0 0 0 0 0 0 0 0 37 0 0 26 0 0 0 0 0 0 0 0 0 0 0 0 32 0 0 0 0 0 23 0 0 23 0 0 0 23 0 0 0 37 0 23 0 0 0 0 0 0 0 0 0 0 0 0 0 0 0 0 25 0 0 0 0 0 0 0 0 0 0 0 0 0 37 0 0 0 0 0 0 0 
		9 0 0 0 0 0 0 0 0 0 0 0 0 0 0 0 0 0 0 0 0 0 0 0 33 30 0 0 0 0 0 0 35 0 0 0 25 0 0 0 0 0 0 33 0 0 24 0 0 0 0 0 0 0 0 0 0 0 0 0 0 0 0 0 0 0 0 0 0 0 0 0 0 0 0 0 0 0 0 0 0 30 0 0 0 0 20 0 0 0 0 
		10 0 29 0 0 0 0 0 0 0 0 0 37 0 0 0 0 0 24 0 0 0 0 0 0 0 0 0 0 0 0 0 0 0 25 0 0 0 0 0 0 0 0 0 0 0 38 0 0 0 0 0 0 0 0 0 0 0 0 0 0 0 0 0 0 0 0 0 0 25 0 0 0 0 0 0 0 0 0 0 0 0 0 0 30 0 0 0 0 0 0 
		11 0 0 0 0 24 0 0 0 0 0 37 0 0 0 0 0 0 0 0 0 40 0 0 0 0 0 0 0 0 0 0 0 0 0 0 0 0 0 0 0 0 0 0 0 0 0 0 0 0 0 0 0 0 35 0 0 0 0 33 0 0 0 0 0 0 0 0 0 0 0 0 0 0 0 0 0 0 0 0 0 0 0 0 0 0 0 20 0 0 0 
		12 0 0 0 0 0 0 0 32 0 0 0 0 0 0 0 0 0 0 0 0 0 0 0 0 0 0 33 0 0 0 25 0 0 0 0 0 0 0 0 0 0 0 0 0 0 0 0 0 0 0 0 0 35 0 0 0 0 0 34 29 0 0 0 0 34 0 0 0 0 0 0 0 0 0 0 0 0 0 0 37 28 0 0 23 0 0 0 0 0 0 
		13 0 0 0 0 0 0 0 0 0 0 0 0 0 0 0 0 29 0 0 0 0 0 0 0 29 0 0 0 21 0 0 0 31 22 0 0 0 20 22 0 0 0 0 39 0 24 0 0 0 0 0 23 0 0 0 0 22 0 0 0 0 0 32 0 0 0 32 22 0 0 0 24 0 0 0 0 0 0 26 0 0 0 0 0 37 0 0 0 0 0 
		14 0 0 0 0 0 29 0 0 0 0 0 0 0 0 0 0 0 0 0 0 0 0 0 0 36 0 0 0 0 0 0 0 0 0 0 0 0 0 0 0 0 37 0 0 0 0 0 0 0 0 0 0 0 0 0 0 0 0 0 0 0 0 0 0 0 0 0 0 0 0 0 0 0 0 0 0 0 0 0 0 33 0 0 0 0 0 0 0 0 0 
		15 0 0 0 0 0 0 40 0 0 0 0 0 0 0 0 0 0 29 0 0 0 0 0 0 0 0 0 0 0 0 0 0 0 0 0 0 0 24 0 0 0 0 0 0 0 0 0 0 0 0 0 0 0 0 0 0 0 0 27 35 0 0 25 0 0 0 0 0 39 20 0 0 0 0 0 0 0 0 0 0 0 0 0 33 0 0 0 0 0 0 
		16 0 0 0 0 0 0 0 0 37 0 0 0 0 29 0 0 0 0 0 0 0 0 0 0 0 0 0 0 0 0 0 38 31 0 0 0 0 0 0 0 0 0 40 0 0 0 0 0 0 0 0 0 0 0 0 0 0 0 0 0 0 0 0 0 0 0 0 36 0 0 0 0 33 0 0 0 29 0 0 0 0 0 0 0 0 0 0 0 32 0 
		17 0 24 0 0 0 0 0 0 0 0 24 0 0 0 0 29 0 0 0 0 0 39 0 0 0 0 33 0 0 0 0 23 0 0 0 30 0 0 0 0 0 20 0 0 0 0 0 0 0 0 0 26 0 0 0 0 0 0 0 0 0 0 0 20 0 0 28 0 0 0 0 0 23 0 0 0 0 0 0 0 0 0 0 34 0 0 0 0 34 0 
		18 21 0 0 0 0 0 0 0 0 0 0 0 0 0 0 0 0 0 0 0 0 0 0 30 0 0 0 0 31 0 0 0 37 0 0 0 0 23 22 0 0 0 0 0 0 25 0 0 0 0 0 0 0 0 0 0 0 0 0 0 0 0 0 0 0 0 0 0 0 0 0 0 0 0 0 0 0 0 0 0 0 21 0 0 0 0 0 36 0 0 
		19 0 22 0 0 0 0 0 30 26 0 0 0 0 0 0 0 0 0 0 0 0 0 0 0 0 0 0 30 0 0 0 0 0 0 39 0 0 0 0 0 0 0 0 0 36 0 0 0 32 26 0 0 0 0 29 37 0 0 0 0 0 31 0 0 0 0 0 37 0 0 22 0 0 0 0 0 33 0 40 22 0 0 0 0 0 0 0 0 0 34 
		20 0 0 0 0 0 0 0 0 0 0 0 40 0 0 0 0 0 0 0 0 0 0 0 0 0 0 0 33 0 0 0 0 0 0 0 0 0 0 0 0 30 0 0 0 31 0 0 0 0 0 0 0 0 0 0 0 0 0 0 0 0 27 0 0 0 0 24 0 0 0 0 0 0 0 0 0 21 0 0 0 0 0 0 0 0 0 0 0 0 0 
		21 0 0 0 0 0 0 0 0 0 0 0 0 0 0 0 0 0 39 0 0 0 0 0 0 0 0 35 39 0 0 0 0 0 0 0 0 0 0 0 0 0 0 0 0 0 0 26 38 0 0 0 28 0 0 0 0 0 0 0 0 0 0 27 36 0 0 33 0 0 0 0 0 0 0 0 0 0 0 0 0 0 0 0 0 0 0 0 0 0 0 
		22 0 0 0 0 0 0 0 0 0 0 0 0 0 0 0 0 0 0 0 0 0 0 0 0 0 0 0 0 0 0 0 0 0 0 0 0 0 0 0 0 0 0 0 0 0 28 0 0 0 0 0 0 0 0 0 0 0 0 0 0 0 0 0 0 0 0 0 0 0 0 0 22 24 0 23 0 0 0 0 0 0 31 0 0 0 0 0 0 0 0 
		23 0 0 0 32 0 0 0 0 0 33 0 0 0 0 0 0 0 0 30 0 0 0 0 0 0 0 0 0 0 0 0 37 0 0 0 24 0 0 0 0 0 0 35 0 0 0 0 0 22 0 0 0 0 0 0 0 0 0 0 0 34 0 0 0 0 0 30 0 0 0 0 0 22 0 0 0 0 0 0 0 0 0 0 0 0 0 0 0 0 0 
		24 0 0 0 0 0 38 0 0 0 30 0 0 0 29 36 0 0 0 0 0 0 0 0 0 0 0 0 0 0 0 0 0 0 0 40 0 0 0 0 0 0 0 31 0 0 0 0 0 28 34 0 0 20 0 0 0 23 0 0 0 0 32 0 0 0 0 0 0 0 0 0 33 0 0 0 0 0 0 0 0 0 0 0 0 0 0 0 0 0 0 
		25 0 0 0 0 0 0 0 0 0 0 0 0 0 0 0 0 0 0 0 0 0 0 0 0 0 0 0 0 0 0 26 30 0 32 0 0 0 0 0 0 0 0 0 0 0 0 0 0 0 0 0 0 0 39 0 0 36 0 0 0 0 0 0 0 25 0 25 0 0 0 0 0 0 0 0 0 0 0 0 0 0 0 0 40 0 0 0 0 0 0 
		26 26 0 0 0 0 0 0 0 0 0 0 0 33 0 0 0 0 33 0 0 0 35 0 0 0 0 0 0 0 0 36 0 0 0 0 0 0 0 0 0 0 0 0 0 0 0 0 0 0 0 0 0 0 0 0 0 33 0 0 0 0 0 0 0 0 0 0 0 0 0 0 0 0 0 0 0 27 0 0 0 0 0 0 0 0 0 0 0 0 0 
		27 0 0 0 0 24 0 28 0 0 0 0 0 0 0 0 0 0 0 0 30 33 39 0 0 0 0 0 0 0 0 0 0 0 0 0 0 0 0 0 0 0 0 0 0 0 0 0 0 0 0 0 0 32 38 0 0 0 0 0 0 0 27 0 0 0 0 0 0 36 0 0 0 0 0 0 0 0 0 0 0 0 0 0 0 0 0 0 40 0 0 
		28 0 0 0 0 0 0 0 0 0 0 0 0 0 21 0 0 0 0 31 0 0 0 0 0 0 0 0 0 0 0 0 0 0 0 0 0 0 0 0 0 0 0 0 24 0 28 26 0 0 0 0 0 0 0 0 0 0 0 0 0 0 0 0 0 0 0 0 0 0 0 0 0 0 0 0 0 0 0 0 0 0 0 0 0 0 33 0 34 0 0 
		29 0 23 0 0 0 39 0 0 0 0 0 0 0 0 0 0 0 0 0 0 0 0 0 0 0 0 0 0 0 0 0 0 0 0 38 0 30 0 0 0 0 25 0 0 0 23 0 0 0 34 0 0 0 0 0 0 0 0 36 0 0 0 0 40 0 0 0 0 28 21 0 0 0 32 0 0 0 0 0 0 36 0 0 0 0 0 0 0 0 0 
		30 0 0 0 0 0 0 0 26 0 0 0 0 25 0 0 0 0 0 0 0 0 0 0 0 0 26 36 0 0 0 0 0 0 0 0 0 24 0 31 0 0 0 0 0 0 0 0 0 0 0 0 0 0 0 0 0 0 0 0 0 0 39 0 0 0 0 0 0 0 0 0 0 0 0 0 0 0 28 0 0 0 0 0 0 0 0 0 0 0 0 
		31 0 0 34 0 0 0 0 0 0 35 0 0 0 0 0 0 38 23 0 0 0 0 0 37 0 30 0 0 0 0 0 0 0 0 0 0 0 0 0 0 0 32 0 0 37 0 0 0 39 0 0 0 0 0 0 0 0 0 0 0 0 0 0 0 0 0 0 32 0 35 26 40 0 0 0 0 0 0 0 0 0 0 0 0 0 0 0 0 0 0 
		32 0 0 0 0 0 0 0 38 32 0 0 0 0 31 0 0 31 0 37 0 0 0 0 0 0 0 0 0 0 0 0 0 0 0 26 29 0 0 25 0 0 30 0 0 0 0 0 0 27 34 0 0 0 0 0 0 0 23 0 0 0 0 0 0 0 0 20 0 33 30 0 0 0 0 0 0 0 0 0 26 0 0 0 0 0 0 0 0 23 0 
		33 0 0 0 0 0 0 30 0 0 0 25 0 0 22 0 0 0 0 0 0 0 0 0 0 0 32 0 0 0 0 0 0 0 0 0 0 28 0 0 0 29 0 0 0 38 0 0 0 0 0 30 36 0 0 0 0 0 0 0 0 0 0 0 0 35 32 0 0 0 0 0 0 0 40 0 0 0 0 0 0 0 0 0 0 0 0 0 0 0 0 
		34 0 0 28 0 0 29 0 0 0 0 0 0 0 0 0 0 0 0 0 39 0 0 0 0 40 0 0 0 0 38 0 0 26 0 0 32 0 0 36 0 0 0 37 0 0 0 0 0 20 0 0 0 28 0 20 34 0 0 0 0 0 0 0 0 0 0 24 0 0 0 0 33 34 0 0 0 0 0 39 0 0 33 0 0 0 27 0 0 0 0 
		35 0 0 0 0 0 0 0 0 0 25 0 0 0 0 0 0 0 30 0 0 0 0 0 24 0 0 0 0 0 0 0 0 29 0 32 0 0 0 0 0 0 0 0 0 0 0 0 0 0 0 0 27 0 0 0 0 0 0 0 0 0 0 0 0 0 0 0 36 0 0 0 0 0 0 0 0 0 0 0 0 0 0 0 0 0 0 0 0 39 0 
		36 0 0 0 0 0 0 0 0 0 0 0 0 0 0 0 0 0 0 0 0 0 0 0 0 0 0 0 0 0 30 24 0 0 28 0 0 0 0 0 0 0 0 0 0 0 0 0 0 0 0 0 0 29 0 0 0 0 0 0 33 0 0 28 0 0 0 0 0 0 0 20 35 0 0 0 0 0 0 0 0 0 0 0 0 21 0 0 0 0 0 
		37 0 29 0 0 0 0 0 0 0 0 0 0 0 20 0 24 0 0 23 0 0 0 0 0 0 0 0 0 0 0 0 0 0 0 0 0 0 0 29 23 0 0 0 0 0 0 40 0 0 0 0 0 0 0 0 0 0 0 0 0 0 0 25 0 0 0 0 0 0 30 0 0 0 0 0 0 0 0 0 0 0 0 30 0 0 0 0 0 22 20 
		38 0 0 0 0 0 23 0 0 23 0 0 0 0 22 0 0 0 0 22 0 0 0 0 0 0 0 0 0 0 0 31 0 25 0 36 0 0 29 0 0 0 38 39 0 0 0 0 0 0 0 0 0 0 0 0 34 0 0 0 0 22 0 0 0 0 0 0 0 0 0 0 0 0 0 0 0 24 0 36 0 39 0 0 0 0 0 0 0 0 0 
		39 0 0 0 36 0 0 0 0 0 0 0 0 0 0 0 0 0 0 0 0 0 0 0 0 0 0 0 0 0 0 0 0 0 0 0 0 0 23 0 0 0 0 0 0 0 0 39 0 0 0 0 0 0 26 0 0 0 0 30 0 0 0 0 0 0 0 0 0 0 0 31 0 0 0 0 0 0 0 0 0 40 0 0 0 0 0 0 24 0 0 
		40 0 0 0 0 0 0 0 0 0 0 0 0 0 0 0 0 0 0 0 0 30 0 0 0 0 0 0 0 0 0 0 0 0 29 0 0 0 0 0 0 0 0 0 0 0 39 0 0 0 0 0 0 0 28 0 0 0 0 0 0 0 0 0 0 0 0 0 0 0 0 0 0 0 0 0 0 0 0 0 0 0 0 21 0 0 0 0 0 0 0 
		41 0 0 0 0 0 0 0 0 23 0 0 0 0 0 37 0 0 20 0 0 0 0 0 0 0 0 0 0 0 25 0 32 30 0 0 0 0 0 38 0 0 0 0 0 0 0 0 0 0 0 0 0 0 0 0 0 0 0 0 0 0 0 0 0 0 0 0 0 0 0 0 0 36 0 0 0 32 0 0 0 32 0 0 0 0 0 0 0 0 0 
		42 0 0 0 0 0 0 0 0 0 33 0 0 0 0 0 0 40 0 0 0 0 0 0 35 31 0 0 0 0 0 0 0 0 0 37 0 0 0 39 0 0 0 0 0 0 0 0 0 0 0 0 0 0 0 0 0 0 0 0 0 0 0 0 0 0 0 0 0 0 0 0 0 0 0 26 0 0 0 0 0 0 0 0 36 29 0 0 0 0 0 
		43 0 0 0 37 0 0 0 0 0 0 0 0 0 39 0 0 0 0 0 0 0 0 0 0 0 0 0 0 24 0 0 0 0 0 0 0 0 0 0 0 0 0 0 0 0 0 0 0 0 39 0 0 0 0 0 0 0 0 26 0 0 0 0 0 0 0 0 0 0 0 0 0 0 27 0 0 0 0 0 0 0 0 0 0 0 0 0 0 20 31 
		44 0 0 0 0 0 0 0 0 0 0 0 0 0 0 0 0 0 0 0 36 31 0 0 0 0 0 0 0 0 0 0 37 0 38 0 0 0 0 0 0 0 0 0 0 0 0 0 0 0 0 0 0 0 0 0 0 0 24 0 0 0 0 0 0 36 0 0 0 0 39 0 0 0 0 0 0 0 0 0 0 0 0 0 0 0 0 0 0 29 33 
		45 0 29 0 22 0 28 0 0 23 24 38 0 0 24 0 0 0 0 25 0 0 0 28 0 0 0 0 0 28 23 0 0 0 0 0 0 0 0 0 0 39 0 0 0 0 0 0 0 0 38 0 0 0 0 0 0 0 0 0 0 0 0 0 24 0 0 0 0 0 0 0 31 0 0 0 0 0 0 0 0 32 0 0 0 40 0 0 0 32 0 
		46 0 0 0 0 0 0 0 0 0 0 0 0 0 0 0 0 0 0 0 0 0 26 0 0 0 0 0 0 26 0 0 0 0 0 0 0 0 40 0 39 0 0 0 0 0 0 0 21 25 0 0 0 0 0 0 0 0 0 0 0 0 0 0 0 0 0 0 0 0 0 0 24 0 0 37 0 0 0 0 0 0 0 36 0 0 21 0 0 0 0 
		47 0 31 0 0 0 0 0 0 0 0 0 0 0 0 0 0 0 0 0 0 0 38 0 0 0 0 0 0 0 0 0 0 0 0 0 0 0 0 0 0 0 0 0 0 0 0 21 0 32 0 0 31 0 23 0 0 0 0 0 0 0 0 0 0 0 0 0 0 0 0 0 0 0 0 0 27 0 0 0 0 0 0 29 0 0 0 37 0 0 0 
		48 0 0 0 0 0 0 0 0 0 0 0 0 0 0 0 0 0 0 0 32 0 0 0 22 28 0 0 0 0 0 0 39 27 0 20 0 0 0 0 0 0 0 0 0 0 0 25 32 0 0 0 0 0 0 29 26 26 0 0 0 20 31 0 20 0 0 38 37 0 0 0 0 28 0 0 0 0 0 36 27 0 0 0 0 0 0 0 26 0 0 
		49 0 0 0 0 0 30 0 0 37 0 0 0 0 0 0 0 0 0 0 26 0 0 0 0 34 0 0 0 0 34 0 0 34 0 0 0 0 0 0 0 0 0 0 39 0 38 0 0 0 0 0 0 0 37 0 0 0 0 0 0 0 0 0 0 0 0 0 0 0 0 0 0 0 0 0 0 0 0 0 0 0 0 0 0 0 0 39 0 0 0 
		50 0 0 0 36 0 0 0 0 0 0 0 0 0 0 0 0 0 0 0 0 0 0 0 0 0 0 0 0 0 0 0 0 0 30 0 0 0 0 0 0 0 0 0 0 0 0 0 0 0 0 0 0 0 0 0 0 0 33 0 0 0 0 0 0 0 0 0 0 0 0 0 0 0 0 0 0 0 0 0 0 0 0 0 0 0 0 0 0 0 0 
		51 0 0 0 0 0 0 0 0 23 0 0 0 0 23 0 0 0 26 0 0 0 28 0 0 0 0 0 0 0 0 0 0 0 36 0 27 0 0 0 0 0 0 0 0 0 0 0 31 0 0 0 0 0 40 0 0 0 0 0 0 0 0 0 0 0 0 0 0 0 37 0 0 0 0 0 0 0 0 0 0 0 0 0 0 0 0 0 0 0 0 
		52 0 0 0 0 21 0 0 0 0 0 0 0 35 0 0 0 0 0 0 0 0 0 0 0 20 0 0 32 0 0 0 0 0 0 28 0 29 0 0 0 0 0 0 0 0 0 0 0 0 0 0 0 0 32 0 0 0 0 0 0 0 0 0 0 0 0 0 0 0 0 0 0 0 0 0 0 0 0 0 0 0 0 0 0 0 0 34 0 0 0 
		53 0 0 0 0 0 0 0 0 0 0 0 35 0 0 0 0 0 0 0 0 0 0 0 0 0 39 0 38 0 0 0 0 0 0 0 0 0 0 0 26 28 0 0 0 0 0 0 23 0 37 0 40 32 0 0 0 0 35 0 0 0 0 30 0 0 0 0 0 0 0 0 0 0 0 0 0 0 0 0 0 0 0 0 0 0 0 0 0 0 0 
		54 0 0 0 0 0 0 29 28 0 0 0 0 0 0 0 0 0 0 0 29 0 0 0 0 0 0 0 0 0 0 0 0 0 0 20 0 0 0 0 0 0 0 0 0 0 0 0 0 29 0 0 0 0 0 0 0 0 0 0 20 0 0 0 0 0 0 21 0 35 0 0 0 0 0 0 0 0 0 0 25 0 0 0 0 34 0 0 0 0 0 
		55 0 0 0 0 0 0 0 0 0 0 0 0 0 0 0 0 0 0 0 37 0 0 0 0 0 0 0 0 0 0 0 0 0 0 34 0 0 0 34 0 0 0 0 0 0 0 0 0 26 0 0 0 0 0 0 0 32 40 0 0 0 0 0 0 0 28 0 0 30 0 0 0 0 0 0 0 0 0 0 0 0 0 0 0 0 0 0 0 21 0 
		56 0 0 0 0 0 0 0 0 0 0 0 0 0 22 0 0 0 0 0 0 0 0 0 0 23 36 33 0 0 0 0 0 0 0 0 0 0 0 0 0 0 0 0 0 0 0 0 0 26 0 0 0 0 0 0 32 0 30 39 0 0 32 0 0 0 0 0 0 0 0 0 0 0 0 0 0 0 0 0 36 0 0 0 27 0 0 0 0 0 0 
		57 0 0 0 0 0 0 0 37 0 0 0 0 0 0 0 0 0 0 0 0 0 0 0 0 0 0 0 0 0 0 0 0 23 0 0 0 0 0 0 0 0 0 0 0 24 0 0 0 0 0 33 0 0 35 0 40 30 0 0 0 0 38 0 0 0 0 0 30 0 0 0 0 0 0 0 0 0 0 0 0 0 0 0 0 0 0 0 0 0 0 
		58 0 0 0 0 0 0 0 0 0 0 0 33 34 0 0 27 0 0 0 0 0 0 0 0 0 0 0 0 0 36 0 0 0 0 0 0 0 0 0 30 0 0 0 26 0 0 0 0 0 0 0 0 0 0 0 0 39 0 0 0 22 0 0 0 0 0 0 0 0 0 0 24 0 36 0 22 0 0 24 0 0 0 0 0 0 0 0 0 0 0 
		59 0 0 20 0 0 0 0 0 0 0 0 0 29 0 0 35 0 0 0 0 0 0 0 0 0 0 0 0 0 0 0 0 0 0 0 0 33 0 0 0 0 0 0 0 0 0 0 0 0 0 0 0 0 0 20 0 0 0 0 0 0 0 36 0 0 0 0 23 0 0 0 0 0 0 0 0 0 0 0 0 0 0 0 0 0 0 0 0 0 39 
		60 0 0 0 0 0 0 0 0 0 0 0 0 0 0 0 0 0 0 0 0 0 0 0 34 0 0 0 0 0 0 0 0 0 0 0 0 0 0 22 0 0 0 0 0 0 0 0 0 20 0 0 0 0 0 0 0 0 0 22 0 0 0 0 0 0 0 0 0 0 0 0 0 0 0 0 0 27 35 0 0 0 0 0 0 0 0 0 0 0 0 
		61 0 0 0 0 0 0 0 0 0 0 0 0 0 0 0 0 0 0 0 31 27 0 0 0 32 0 0 27 0 0 39 0 0 0 0 0 0 0 0 0 0 0 0 0 0 0 0 0 31 0 0 0 0 0 0 0 32 38 0 0 0 0 0 0 0 0 0 0 0 0 0 0 21 0 0 0 0 40 22 0 0 0 0 0 38 0 0 0 0 0 
		62 0 0 0 0 0 21 0 0 0 0 0 0 0 32 0 25 0 0 0 0 0 27 0 0 0 0 0 0 0 0 0 0 0 0 0 0 28 25 0 0 0 0 0 0 0 0 0 0 0 0 0 0 0 30 0 0 0 0 0 36 0 0 0 0 0 0 0 0 0 0 0 0 0 34 0 0 0 0 38 0 0 0 0 0 0 0 0 0 0 0 
		63 0 0 40 0 0 0 0 0 0 0 0 0 0 0 0 0 0 20 0 0 0 36 0 0 0 0 0 0 0 40 0 0 0 0 0 0 0 0 0 0 0 0 0 0 0 24 0 0 20 0 0 0 0 0 0 0 0 0 0 0 0 0 0 0 0 0 0 0 39 0 0 0 0 0 0 0 0 0 0 0 0 0 0 0 0 0 0 0 0 0 
		64 0 0 0 0 0 0 22 0 0 0 0 0 34 0 0 0 0 0 0 0 0 0 0 0 0 25 0 0 0 0 0 0 0 35 0 0 0 0 0 0 0 0 0 0 36 0 0 0 0 0 0 0 0 0 0 0 0 0 0 0 0 0 0 0 0 24 0 0 0 0 0 0 0 0 0 0 0 0 0 0 0 0 0 0 0 0 0 23 0 0 
		65 0 0 0 0 32 0 0 0 0 0 0 0 0 0 0 0 0 0 0 0 0 0 0 0 0 0 0 0 0 0 0 0 0 32 0 0 0 0 0 0 0 0 0 0 0 0 0 0 0 0 0 0 0 0 0 28 0 0 0 0 0 0 0 0 24 0 0 0 0 30 0 0 0 0 0 0 0 0 0 0 0 0 0 0 0 0 0 0 21 0 
		66 0 0 0 0 0 0 38 0 0 0 0 0 0 32 0 0 0 28 0 0 24 33 0 30 0 25 0 0 0 0 0 0 20 0 24 0 0 0 0 0 0 0 0 0 0 0 0 0 38 0 0 0 0 0 21 0 0 0 0 0 0 0 0 0 0 0 0 0 0 0 0 0 0 0 0 0 20 0 0 38 0 0 0 0 0 0 0 0 0 0 
		67 0 38 0 0 0 0 24 40 0 0 0 0 0 22 0 0 36 0 0 37 0 0 0 0 0 0 0 0 0 0 0 32 0 0 0 36 0 0 0 0 0 0 0 0 0 0 0 0 37 0 0 0 0 0 0 0 0 30 0 23 0 0 0 0 0 0 0 0 0 0 0 0 0 0 0 0 0 0 0 0 0 0 0 23 0 0 0 0 31 0 
		68 0 0 0 29 0 0 0 0 25 0 25 0 0 0 0 39 0 0 0 0 0 0 0 0 0 0 0 36 0 28 0 0 33 0 0 0 0 0 0 0 0 0 0 0 0 0 0 0 0 0 0 0 0 0 35 30 0 0 0 0 0 0 0 39 0 0 0 0 0 0 0 20 0 0 0 0 0 0 32 37 0 0 0 0 30 0 0 0 0 0 
		69 0 0 0 33 24 0 35 0 0 0 0 0 0 0 0 20 0 0 0 0 0 0 0 0 0 0 0 0 0 21 0 35 30 0 0 0 0 30 0 0 0 0 0 0 39 0 0 0 0 0 0 37 0 0 0 0 0 0 0 0 0 0 0 0 0 30 0 0 0 0 0 0 0 0 0 0 0 0 0 0 0 0 0 26 0 0 36 36 38 0 
		70 25 0 0 0 33 0 0 0 0 0 0 0 0 0 0 0 0 0 0 22 0 0 0 0 0 0 0 0 0 0 0 26 0 0 0 0 20 0 0 31 0 0 0 0 0 0 0 0 0 0 0 0 0 0 0 0 0 0 0 0 0 0 0 0 0 0 0 0 0 0 0 0 0 0 0 0 0 0 0 0 27 0 0 0 0 0 0 0 0 0 
		71 0 0 0 28 0 24 0 0 0 0 0 0 0 24 0 0 0 0 0 0 0 0 22 0 33 0 0 0 0 0 0 40 0 0 33 0 35 0 0 0 0 0 0 0 0 31 24 0 0 0 0 0 0 0 0 0 0 0 24 0 0 0 0 0 0 0 0 0 20 0 0 0 0 0 0 0 0 0 0 0 0 0 40 0 0 0 0 0 34 0 
		72 0 0 0 0 0 0 0 24 0 0 0 0 0 0 0 0 33 23 0 0 0 0 24 22 0 0 0 0 0 0 0 0 0 0 34 0 0 0 0 0 0 36 0 0 0 0 0 0 28 0 0 0 0 0 0 0 0 0 0 0 0 21 0 0 0 0 0 0 0 0 0 0 0 0 23 0 0 0 0 0 27 0 0 0 0 0 0 0 29 0 
		73 0 0 0 0 0 0 0 0 0 0 0 0 0 0 0 0 0 0 0 0 0 0 0 0 0 0 0 0 0 32 0 0 0 40 0 0 0 0 0 0 0 0 0 27 0 0 0 0 0 0 0 0 0 0 0 0 0 0 36 0 0 0 34 0 0 0 0 0 0 0 0 0 0 0 0 0 0 0 0 0 0 0 0 36 0 0 0 0 0 0 
		74 0 0 0 0 0 36 0 0 0 0 0 0 0 0 0 0 0 0 0 0 0 0 23 0 0 0 0 0 0 0 0 0 0 0 0 0 0 0 0 0 0 0 26 0 0 0 37 0 0 0 0 0 0 0 0 0 0 0 0 0 0 0 0 0 0 0 0 0 0 0 0 0 23 0 0 0 26 0 0 0 0 0 0 0 0 33 0 0 0 33 
		75 0 0 0 0 0 0 0 0 0 0 0 0 0 0 0 0 0 0 0 0 0 0 0 0 0 0 0 0 0 0 0 0 0 0 0 0 0 0 0 0 0 0 0 0 0 0 0 27 0 0 0 0 0 0 0 0 0 0 22 0 0 0 0 0 0 0 0 0 0 0 0 0 0 0 0 0 0 0 0 0 0 0 0 0 0 0 0 0 0 0 
		76 0 0 27 0 0 0 0 0 0 0 0 0 0 0 0 0 29 0 0 33 21 0 0 0 0 0 27 0 0 0 0 0 0 0 0 0 0 0 24 0 0 32 0 0 0 0 0 0 0 0 0 0 0 0 0 0 0 0 0 0 27 0 0 0 0 0 20 0 0 0 0 0 0 0 26 0 0 0 0 0 0 39 0 0 0 0 0 0 0 0 
		77 33 0 0 0 0 0 0 23 0 0 0 0 0 0 0 0 0 0 0 0 0 0 0 0 0 0 0 0 0 0 28 0 0 0 0 0 0 0 0 0 0 0 0 0 0 0 0 0 0 0 0 0 0 0 0 0 0 0 0 0 35 40 0 0 0 0 0 0 0 0 0 0 0 0 0 0 0 0 0 0 0 0 0 0 0 0 0 0 0 29 
		78 0 0 0 0 0 37 20 0 0 0 0 0 0 26 0 0 0 0 0 40 0 0 0 0 0 0 0 0 0 0 0 0 0 0 39 0 0 0 36 0 0 0 0 0 0 0 0 0 36 0 0 0 0 0 0 0 0 0 24 0 0 22 38 0 0 0 0 0 32 0 0 0 0 0 0 0 0 0 0 0 38 0 0 0 0 0 0 24 0 0 
		79 0 0 34 35 0 0 0 0 0 0 0 0 37 0 0 0 0 0 0 22 0 0 0 0 0 0 0 0 0 0 0 0 26 0 0 0 0 0 0 0 0 0 0 0 0 0 0 0 27 0 0 0 0 0 25 0 36 0 0 0 0 0 0 0 0 0 38 0 37 0 0 0 0 0 0 0 0 0 0 0 0 0 0 0 0 0 0 0 0 0 
		80 0 0 0 0 0 0 0 0 0 30 0 0 28 0 33 0 0 0 0 0 0 0 0 0 0 0 0 0 0 36 0 0 0 0 0 0 0 0 39 40 0 32 0 0 0 32 0 0 0 0 0 0 0 0 0 0 0 0 0 0 0 0 0 0 0 0 0 0 0 0 27 0 27 0 0 0 0 0 38 0 0 0 0 0 22 0 0 0 0 0 
		81 0 0 0 0 0 0 0 0 0 0 0 0 0 0 0 0 0 0 21 0 0 0 31 0 0 0 0 0 0 0 0 0 0 0 33 0 0 0 0 0 0 0 0 0 0 0 0 0 0 0 0 0 0 0 0 0 0 0 0 0 0 0 0 0 0 0 0 0 0 0 0 0 0 0 0 0 39 0 0 0 0 0 0 0 0 0 0 0 38 0 
		82 0 0 0 0 0 0 0 0 37 0 0 0 0 0 0 0 0 0 0 0 0 0 0 0 0 0 0 0 0 0 0 0 0 0 0 0 0 30 0 0 21 0 0 0 0 0 36 29 0 0 0 0 0 0 0 0 0 0 0 0 0 0 0 0 0 0 0 0 0 0 0 40 0 0 0 0 0 0 0 0 0 0 0 0 0 0 0 0 0 39 
		83 0 0 0 29 0 28 0 0 0 0 30 0 23 0 0 33 0 34 0 0 0 0 0 0 0 40 0 0 0 0 0 0 0 0 0 0 0 0 0 0 0 0 36 0 0 0 0 0 0 0 0 0 0 0 0 0 27 0 0 0 0 0 0 0 0 0 0 23 0 26 0 0 0 36 0 0 0 0 0 0 0 0 0 0 0 0 0 0 0 0 
		84 0 35 0 0 0 24 0 0 0 0 0 0 0 37 0 0 0 0 0 0 0 0 0 0 0 0 0 0 0 0 0 0 0 0 0 0 21 0 0 0 0 0 29 0 0 40 0 0 0 0 0 0 0 0 34 0 0 0 0 0 0 38 0 0 0 0 0 0 30 0 0 0 0 0 0 0 0 0 0 0 22 0 0 0 0 0 39 0 0 0 
		85 0 20 0 0 39 0 0 0 0 20 0 0 0 0 0 0 0 0 0 0 0 0 0 0 0 0 0 0 33 0 0 0 0 0 27 0 0 0 0 0 0 0 0 0 0 0 21 0 0 0 0 0 0 0 0 0 0 0 0 0 0 0 0 0 0 0 0 0 0 0 0 0 0 0 33 0 0 0 0 0 0 0 0 0 0 0 0 0 0 0 
		86 0 0 0 0 27 0 0 0 0 0 0 20 0 0 0 0 0 0 0 0 0 0 0 0 0 0 0 0 0 0 0 0 0 0 0 0 0 0 0 0 0 0 0 0 0 0 0 37 0 39 0 0 34 0 0 0 0 0 0 0 0 0 0 0 0 0 0 0 0 36 0 0 0 0 0 0 0 0 0 0 0 0 0 0 39 0 0 0 0 0 
		87 0 0 0 24 0 0 20 0 0 0 0 0 0 0 0 0 0 0 36 0 0 0 0 0 0 0 0 40 34 0 0 0 0 0 0 0 0 0 0 24 0 0 0 0 0 0 0 0 26 0 0 0 0 0 0 0 0 0 0 0 0 0 0 0 23 0 0 0 0 36 0 0 0 0 0 0 0 0 24 0 0 0 0 0 0 0 0 0 0 0 
		88 0 23 0 0 0 0 0 0 0 0 0 0 0 0 0 0 32 34 0 0 0 0 0 0 0 0 0 0 0 0 0 0 23 0 0 39 0 22 0 0 0 0 0 20 29 32 0 0 0 0 0 0 0 0 0 21 0 0 0 0 0 0 0 0 0 21 0 31 0 38 0 34 29 0 0 0 0 0 0 0 0 38 0 0 0 0 0 0 0 0 
		89 0 0 0 0 0 0 0 0 0 0 0 0 0 0 0 0 0 0 0 34 0 0 0 0 0 0 0 0 0 0 0 0 0 0 0 0 0 20 0 0 0 0 0 31 33 0 0 0 0 0 0 0 0 0 0 0 0 0 0 39 0 0 0 0 0 0 0 0 0 0 0 0 0 0 33 0 0 29 0 0 0 0 39 0 0 0 0 0 0 0 
;
